p cnf 426 1346
a 338 339 340 341 342 343 344 345 346 347 348 349 350 351 352 353 354 355 356 357 358 359 360 361 362 363 364 365 366 367 368 369 370 371 372 373 374 375 376 377 378 379 380 381 0
e 296 297 298 299 300 301 302 303 304 305 306 307 308 309 310 311 312 313 314 315 316 317 318 319 320 321 322 323 324 325 326 327 328 329 330 331 332 333 334 335 336 337 2 3 4 5 6 7 8 9 10 11 12 13 14 15 16 17 18 19 20 21 22 23 24 25 26 27 28 29 30 31 32 33 34 35 36 37 38 39 40 41 42 43 44 45 46 47 48 49 50 51 52 53 54 55 56 57 58 59 60 61 62 63 64 65 66 67 68 69 70 71 72 73 74 75 76 77 78 79 80 81 82 83 84 85 86 87 88 89 90 91 92 93 94 95 96 97 98 99 100 101 102 103 104 105 106 107 108 109 110 111 112 113 114 115 116 117 118 119 120 121 122 123 124 125 126 127 128 129 130 131 132 133 134 135 136 137 138 139 140 141 142 143 144 145 146 147 148 149 150 151 152 153 154 155 156 157 158 159 160 161 162 163 164 165 166 167 168 169 170 171 172 173 174 175 176 177 178 179 180 181 182 183 184 185 186 187 188 189 190 191 192 193 194 195 196 197 198 199 200 201 202 203 204 205 206 207 208 209 210 211 212 213 214 215 216 217 218 219 220 221 222 223 224 225 226 227 228 229 230 231 232 233 234 235 236 237 238 239 240 241 242 243 244 245 246 247 248 249 250 251 252 253 254 255 256 257 258 259 260 261 262 263 264 265 266 267 268 269 270 271 272 273 274 275 276 277 278 279 280 281 282 283 284 285 286 287 288 289 290 291 292 293 294 295 426 0
4 380 5 -258 -265 0
4 -380 -5 -258 -265 0
265 -4 0
5 -4 -380 0
258 -4 0
380 -4 -5 0
5 -381 -6 0
5 381 -251 -255 0
381 251 -5 0
6 -5 -381 0
381 255 -5 0
6 7 -88 -130 -174 0
-6 -7 0
174 -6 0
130 -6 0
88 -6 0
7 80 -8 0
7 87 -80 0
7 80 -81 0
-7 -80 -87 0
8 80 81 -7 0
8 18 62 -63 0
8 9 18 62 0
-8 -62 0
-8 -18 0
63 -8 -9 0
9 12 -10 -14 0
10 -9 0
-9 -12 0
14 -9 0
10 370 -372 0
10 372 11 -370 0
10 370 -369 -11 0
-10 -370 -11 0
370 372 11 -10 0
-10 -370 -372 0
369 372 -10 -11 0
11 371 -373 0
-11 -371 0
373 -11 0
12 372 -371 -373 0
12 371 373 13 0
12 371 -372 -373 0
12 372 -373 -13 0
-12 -371 -372 0
371 372 13 -12 -373 0
373 -12 -371 0
373 -12 -13 0
13 369 370 0
-13 -369 0
-13 -370 0
14 15 -16 0
-14 -15 0
16 -14 0
15 371 -372 0
15 370 371 0
15 371 -373 0
15 372 -370 -371 0
370 -15 -371 0
-15 -371 -372 0
371 372 373 -15 -370 0
16 369 17 -370 0
16 369 370 -371 0
-16 -369 0
-16 -370 -17 0
370 371 -16 0
17 -371 -372 0
371 -17 0
372 -17 0
18 27 9 59 0
18 19 27 9 0
-18 -9 0
-18 -27 0
-18 -19 -59 0
19 -20 -21 0
20 -19 0
21 -19 0
20 10 12 0
-20 -10 0
-20 -12 0
21 22 -23 0
-21 -22 0
23 -21 0
22 369 -15 0
22 15 -369 0
-22 -369 -15 0
369 15 -22 0
23 24 25 0
-23 -24 0
-23 -25 0
24 369 17 0
24 369 370 0
-24 -369 0
-24 -370 -17 0
25 -369 -26 0
369 -25 0
26 -25 0
26 -370 -371 0
26 -370 -373 0
26 -370 -372 0
370 -26 0
371 372 373 -26 0
27 30 19 -53 0
27 28 30 19 0
-27 -19 0
-27 -30 0
53 -27 -28 0
28 369 370 371 -29 0
29 -28 0
-28 -371 0
-28 -369 0
-28 -370 0
29 10 -12 0
-29 -10 0
12 -29 0
30 -31 -42 0
30 -38 -42 0
30 -40 -42 0
42 -30 0
31 38 40 -30 0
31 311 37 -33 0
31 33 37 -32 0
-31 -37 0
-31 -311 -33 0
32 33 -31 0
32 -311 -353 0
32 311 353 0
311 -32 -353 0
353 -32 -311 0
33 -361 -34 0
361 -33 0
34 -33 0
34 -35 -36 0
35 -34 0
36 -34 0
35 -10 -12 0
10 -35 0
12 -35 0
36 -15 -16 0
15 -36 0
16 -36 0
37 -22 -29 -23 0
22 -37 0
29 -37 0
23 -37 0
38 -20 -39 0
20 -38 0
39 -38 0
39 17 -25 0
-39 -17 0
25 -39 0
40 311 -37 -41 0
40 41 -32 -37 0
37 -40 0
32 41 -40 0
-40 -311 -41 0
41 361 -362 0
-41 -361 0
362 -41 0
42 28 -51 0
42 28 -43 0
42 38 28 0
-42 -28 0
43 51 -42 -38 0
43 311 46 -353 -44 0
-43 -311 0
-43 -46 0
44 -43 0
353 -43 0
44 45 -343 0
343 -44 0
-44 -45 0
45 -338 -359 0
45 338 339 359 360 0
338 -45 -339 0
359 -45 -338 0
359 -45 -360 0
338 -45 -359 0
46 47 -49 0
-46 -47 0
49 -46 0
47 338 -339 -48 0
48 -47 0
339 -47 0
-47 -338 0
48 359 -360 0
-48 -359 0
360 -48 0
49 -344 -50 0
344 -49 0
50 -49 0
50 -353 -44 0
353 -50 0
44 -50 0
51 -344 -32 0
51 52 -32 0
32 -51 0
344 -51 -52 0
52 47 -50 0
-52 -47 0
50 -52 0
53 -311 -56 0
53 32 54 0
53 54 -56 0
53 32 -311 0
56 -53 -32 0
311 -53 -54 0
54 377 55 -376 -378 0
378 -54 0
-54 -55 0
376 -54 0
-54 -377 0
55 359 -347 0
55 347 360 -348 0
55 347 -359 0
55 348 359 -360 0
-55 -347 -359 0
347 359 -55 -348 -360 0
347 348 359 360 -55 0
56 377 57 -376 -378 0
378 -56 0
-56 -57 0
376 -56 0
-56 -377 0
57 347 -348 0
57 359 -347 0
57 347 58 0
-57 -347 -359 0
347 348 -57 -58 0
58 359 360 0
-58 -359 0
-58 -360 0
59 32 -311 0
59 61 -60 0
59 32 61 0
59 -311 -60 0
60 -59 -32 0
311 -59 -61 0
60 376 377 57 -378 0
-60 -376 0
-60 -57 0
378 -60 0
-60 -377 0
61 376 377 55 -378 0
-61 -376 0
-61 -55 0
378 -61 0
-61 -377 0
62 -36 -29 0
36 -62 0
29 -62 0
63 67 -64 0
63 32 67 0
-63 -67 0
64 -63 -32 0
64 376 378 -377 -65 0
377 -64 0
-64 -378 0
-64 -376 0
65 -64 0
65 47 45 -66 0
66 -65 0
-65 -45 0
-65 -47 0
66 -340 -359 0
66 340 341 359 360 0
340 -66 -341 0
359 -66 -340 0
359 -66 -360 0
340 -66 -359 0
67 -68 -78 0
67 354 71 -68 0
68 -67 0
78 -67 -354 0
78 -67 -71 0
68 376 378 -377 -69 0
377 -68 0
-68 -378 0
-68 -376 0
69 -68 0
69 45 70 0
-69 -45 0
-69 -70 0
70 359 -340 0
70 340 360 -341 0
70 340 -359 0
70 341 359 -360 0
-70 -340 -359 0
340 359 -70 -341 -360 0
340 341 359 360 -70 0
71 311 32 0
71 75 -72 0
71 32 75 0
71 311 -72 0
-71 -311 -75 0
72 -71 -32 0
72 -342 -73 0
72 -73 -74 0
73 -72 0
342 74 -72 0
73 354 -356 0
-73 -354 0
356 -73 0
74 357 -338 0
74 338 358 -339 0
74 338 -357 0
74 339 357 -358 0
-74 -338 -357 0
338 357 -74 -339 -358 0
338 339 357 358 -74 0
75 76 -356 0
356 -75 0
-75 -76 0
76 342 -77 0
-76 -342 0
77 -76 0
77 -338 -357 0
77 338 339 357 358 0
338 -77 -339 0
357 -77 -338 0
357 -77 -358 0
338 -77 -357 0
78 355 79 -354 0
78 -354 -355 -32 0
354 -78 0
32 -78 -355 0
355 -78 -79 0
79 311 32 0
79 -77 -74 0
79 311 -74 0
79 32 -77 0
77 -79 -311 0
74 -79 -32 0
80 -35 -21 0
35 -80 0
21 -80 0
81 32 82 -62 0
81 82 -62 -86 0
62 -81 0
-81 -82 0
86 -81 -32 0
82 83 -32 -84 0
82 79 -83 -84 0
84 -82 0
-82 -79 -83 0
32 83 -82 0
83 355 -354 0
354 -83 0
-83 -355 0
84 -69 -85 0
69 -84 0
85 -84 0
85 346 377 378 -376 0
376 -85 0
-85 -378 0
-85 -346 0
-85 -377 0
86 -65 -85 0
65 -86 0
85 -86 0
87 311 -345 0
87 345 -32 0
-87 -311 -345 0
345 32 -87 0
88 -94 -100 0
88 89 -9 -100 0
100 -88 0
94 -88 -89 0
9 94 -88 0
89 312 -93 0
89 90 92 0
89 90 -93 0
89 312 92 0
-89 -312 -90 0
93 -89 -92 0
90 -68 -91 0
68 -90 0
91 -90 0
91 353 354 0
-91 -353 0
-91 -354 0
92 -312 -354 0
92 312 354 0
312 -92 -354 0
354 -92 -312 0
93 -64 -91 0
64 -93 0
91 -93 0
94 9 99 -19 0
94 19 9 -95 0
-94 -9 0
-94 -19 -99 0
19 95 -94 0
95 96 98 0
95 97 98 0
-95 -98 0
-95 -96 -97 0
96 -29 -14 0
29 -96 0
14 -96 0
97 -312 -350 0
97 350 92 0
312 -97 -350 0
350 -97 -92 0
98 96 -312 -33 0
98 33 92 96 0
-98 -96 0
312 -98 -33 0
33 -98 -92 0
99 61 -60 0
99 92 -312 0
99 -312 -60 0
99 61 92 0
60 -99 -92 0
312 -99 -61 0
100 9 101 121 0
100 101 119 -9 0
-100 -101 0
9 -100 -121 0
-100 -9 -119 0
101 -62 -102 0
101 62 -114 0
101 62 -107 0
102 -101 -62 0
62 107 114 -101 0
102 105 -86 0
102 103 104 0
102 103 105 0
86 -102 -103 0
-102 -104 -105 0
-102 -103 -105 0
103 -326 -368 0
103 326 368 0
326 -103 -368 0
368 -103 -326 0
104 353 355 -354 0
-104 -353 0
354 -104 0
-104 -355 0
105 -353 -84 0
105 83 -84 0
105 106 -84 0
84 -105 0
353 -105 -83 -106 0
106 -77 -74 0
106 103 -326 0
106 -326 -74 0
106 103 -77 0
74 -106 -103 0
326 77 -106 0
107 108 -9 -64 0
107 103 108 -9 0
9 -107 0
-107 -108 0
64 -107 -103 0
108 -68 -109 0
108 -68 -112 0
108 -68 -111 0
68 -108 0
109 111 112 -108 0
109 355 -354 -110 0
109 -354 -355 -103 0
354 -109 0
103 -109 -355 0
355 110 -109 0
110 353 106 0
-110 -353 0
-110 -106 0
111 -353 -103 0
353 -111 0
103 -111 0
112 354 -113 0
112 354 72 -103 0
-112 -354 0
113 -112 -72 0
103 113 -112 0
113 353 -326 -75 0
326 -113 0
-113 -353 0
75 -113 0
114 9 103 116 0
114 9 116 -115 0
-114 -9 0
-114 -116 0
115 -114 -103 0
115 49 -38 0
38 -115 0
-115 -49 0
116 -117 -118 0
116 326 -50 -117 0
117 -116 0
118 -116 -326 0
50 118 -116 0
117 46 -38 0
38 -117 0
-117 -46 0
118 52 -103 0
-118 -52 0
103 -118 0
119 120 -313 0
119 90 -93 0
119 90 120 0
119 -313 -93 0
313 -119 -90 0
93 -119 -120 0
120 -313 -355 0
120 313 355 0
313 -120 -355 0
355 -120 -313 0
121 -19 -122 0
121 19 -128 0
121 19 -123 0
122 -121 -19 0
19 123 128 -121 0
122 313 -60 0
122 61 120 0
122 61 -60 0
122 313 120 0
60 -122 -120 0
-122 -313 -61 0
123 28 124 -115 0
123 28 120 124 0
-123 -28 0
-123 -124 0
115 -123 -120 0
124 -117 -125 0
124 -117 -126 0
117 -124 0
125 126 -124 0
125 52 -120 0
-125 -52 0
120 -125 0
126 313 127 -50 0
126 -313 -50 -127 0
50 -126 0
127 -126 -313 0
313 -126 -127 0
127 -354 -355 0
354 -127 0
355 -127 0
128 313 129 -28 0
128 54 129 -28 0
28 -128 0
-128 -129 0
-128 -313 -54 0
129 56 -120 0
-129 -56 0
120 -129 0
130 -62 -146 0
130 -131 -146 0
130 -140 -146 0
146 -130 0
62 131 140 -130 0
131 9 132 139 0
131 9 132 -138 0
-131 -9 0
-131 -132 0
138 -131 -139 0
132 38 136 -34 0
132 34 38 -133 0
-132 -38 0
-132 -34 -136 0
34 133 -132 0
133 134 135 0
133 338 134 0
133 -324 -338 -135 0
338 -133 -134 0
135 -133 -134 0
324 -133 -338 -135 0
134 -324 -366 0
134 324 366 0
324 -134 -366 0
366 -134 -324 0
135 -346 -364 -35 -39 0
39 -135 0
346 -135 0
35 -135 0
364 -135 0
136 137 -361 0
136 137 -134 0
-136 -137 0
361 134 -136 0
137 324 -351 -361 0
137 324 -361 -363 0
137 351 363 -324 -361 0
-137 -324 -351 0
-137 -324 -363 0
361 -137 0
324 351 363 -137 0
138 50 -134 0
138 338 -134 0
134 -138 0
-138 -338 -50 0
139 -324 -38 0
139 338 -38 0
139 50 -38 0
38 -139 0
324 -139 -338 -50 0
140 -9 -141 0
140 93 -9 -134 0
9 -140 0
141 -140 -93 0
134 141 -140 0
141 324 -145 0
141 -142 -143 -145 0
145 -141 0
142 -141 -324 0
143 -141 -324 0
142 76 -73 0
73 -142 0
-142 -76 0
143 338 359 -144 0
143 338 359 -357 0
-143 -338 0
-143 -359 0
357 144 -143 0
144 -363 -364 0
363 -144 0
364 -144 0
145 -324 -90 0
145 72 -90 0
145 143 -90 0
90 -145 0
324 -145 -72 -143 0
146 147 -166 0
146 147 161 -62 0
-146 -147 0
166 -146 -161 0
62 166 -146 0
147 -62 -148 0
147 62 -159 0
147 62 -154 0
148 -147 -62 0
62 154 159 -147 0
148 151 -150 0
148 149 151 0
-148 -151 0
150 -148 -149 0
149 -321 -363 0
149 321 363 0
321 -149 -363 0
363 -149 -321 0
150 -86 -91 0
86 -150 0
91 -150 0
151 -321 -152 -153 0
151 153 -149 -152 0
152 -151 0
321 -151 -153 0
149 153 -151 0
152 -84 -91 0
84 -152 0
91 -152 0
153 354 -338 -356 0
338 -153 0
-153 -354 0
356 -153 0
154 9 155 157 0
154 34 9 155 0
-154 -155 0
-154 -9 0
-154 -34 -157 0
155 34 156 -149 0
155 321 34 -156 0
-155 -34 0
156 149 -155 0
-155 -321 -156 0
156 -338 -135 0
338 -156 0
135 -156 0
157 158 -149 0
157 -321 -158 0
149 158 -157 0
321 -157 -158 0
158 -351 -361 0
351 -158 0
361 -158 0
159 160 -321 -9 0
159 90 160 -9 0
9 -159 0
-159 -160 0
321 -159 -90 0
160 93 -149 0
-160 -93 0
149 -160 0
161 163 -150 0
161 162 163 0
-161 -163 0
150 -161 -162 0
162 -323 -365 0
162 323 365 0
323 -162 -365 0
365 -162 -323 0
163 -323 -152 -164 0
163 164 -152 -162 0
152 -163 0
323 -163 -164 0
162 164 -163 0
164 -165 -73 0
165 -164 0
73 -164 0
165 338 339 0
-165 -338 0
-165 -339 0
166 -9 -172 0
166 -167 -172 0
166 -169 -172 0
172 -166 0
9 167 169 -166 0
167 323 34 -168 0
167 34 168 -162 0
-167 -34 0
-167 -323 -168 0
162 168 -167 0
168 -165 -135 0
165 -168 0
135 -168 0
169 -323 -34 -170 0
169 170 -34 -162 0
34 -169 0
323 -169 -170 0
162 170 -169 0
170 -361 -171 0
361 -170 0
171 -170 0
171 351 352 0
-171 -351 0
-171 -352 0
172 62 173 0
172 323 62 -90 0
-172 -62 0
-172 -323 -173 0
90 -172 -173 0
173 -9 -93 0
173 162 -9 0
9 -173 0
93 -173 -162 0
174 227 236 -175 -216 0
216 -174 0
-174 -236 0
175 -174 0
-174 -227 0
175 62 -190 0
175 -176 -184 -190 0
190 -175 0
176 -175 -62 0
184 -175 -62 0
176 177 -182 0
176 150 177 -181 0
-176 -177 0
182 -176 -150 0
181 182 -176 0
177 179 -150 0
177 178 179 0
-177 -179 0
150 -177 -178 0
178 -315 -357 0
178 315 357 -316 -358 0
178 315 316 357 358 0
357 -178 -315 0
315 358 -178 -316 0
315 -178 -357 0
316 357 -178 -358 0
179 73 180 -152 0
179 -73 -152 -178 0
152 -179 0
73 -179 -180 0
178 -179 -73 0
180 338 -315 0
180 315 339 -316 0
180 315 -338 0
180 316 338 -339 0
-180 -315 -338 0
315 338 -180 -316 -339 0
315 316 338 339 -180 0
181 -325 -367 0
181 325 367 0
325 -181 -367 0
367 -181 -325 0
182 -73 -152 -183 0
182 73 -152 -181 0
152 -182 0
183 -182 -73 0
73 181 -182 0
183 -325 -365 0
183 -325 -165 0
183 325 365 165 0
325 -183 -165 0
365 165 -183 -325 0
325 -183 -365 0
184 187 -185 0
184 150 187 -134 0
-184 -187 0
185 -184 -150 0
134 185 -184 0
185 73 -134 -152 0
185 -73 -152 -186 0
152 -185 0
186 -185 -73 0
73 134 -185 0
186 -324 -338 0
186 -324 -363 0
186 324 338 363 0
324 -186 -363 0
338 363 -186 -324 0
324 -186 -338 0
187 189 -150 0
187 188 189 0
-187 -189 0
150 -187 -188 0
188 -322 -364 0
188 322 364 0
322 -188 -364 0
364 -188 -322 0
189 73 -152 -188 0
189 -322 -73 -152 0
152 -189 0
73 188 -189 0
322 -189 -73 0
190 9 201 -204 0
190 201 -191 -204 0
204 -190 0
-190 -201 0
191 -190 -9 0
191 192 200 0
191 322 192 -90 0
-191 -192 0
-191 -322 -200 0
90 -191 -200 0
192 193 -195 0
192 90 193 0
192 142 193 0
-192 -193 0
195 -192 -90 -142 0
193 93 194 0
193 72 194 -68 0
-193 -194 0
-193 -72 -93 0
68 -193 -93 0
194 374 -332 0
194 332 375 -333 0
194 332 -374 0
194 333 374 -375 0
-194 -332 -374 0
332 374 -194 -333 -375 0
332 333 374 375 -194 0
195 -74 -196 0
195 -77 -197 0
195 -77 -74 0
195 -196 -197 0
74 197 -195 0
77 196 -195 0
196 357 -332 0
196 332 358 -333 0
196 332 -357 0
196 333 357 -358 0
-196 -332 -357 0
332 357 -196 -333 -358 0
332 333 357 358 -196 0
197 332 -342 -198 0
197 199 -332 -342 0
342 -197 0
-197 -332 -199 0
332 198 -197 0
198 333 365 0
198 333 -165 0
-198 -333 0
165 -198 -365 0
199 338 -363 0
-199 -338 0
363 -199 0
200 62 -93 0
200 62 188 0
-200 -62 0
93 -200 -188 0
201 33 37 -203 0
201 37 202 -33 0
-201 -37 0
-201 -33 -202 0
33 203 -201 0
202 319 320 0
-202 -319 0
-202 -320 0
203 361 -319 0
203 319 362 -320 0
203 319 -361 0
203 320 361 -362 0
-203 -319 -361 0
319 361 -203 -320 -362 0
319 320 361 362 -203 0
204 205 211 -206 -212 0
206 -204 0
-204 -211 0
-204 -205 0
212 -204 0
205 319 -320 -37 0
205 361 -319 -37 0
205 319 -361 -37 0
37 -205 0
-205 -319 -361 0
319 320 361 -205 0
206 -48 -207 -209 0
206 48 207 -208 -209 0
48 -206 -207 0
207 -206 -48 0
209 -206 0
48 208 -206 0
207 317 -318 0
-207 -317 0
318 -207 0
208 -317 -359 0
208 317 359 0
317 -208 -359 0
359 -208 -317 0
209 -309 -380 0
209 310 -380 0
209 -380 -210 0
380 -209 0
309 210 -209 -310 0
210 351 -352 0
-210 -351 0
352 -210 0
211 351 -309 0
211 309 310 -351 0
211 310 351 -352 0
309 -211 -310 0
-211 -309 -351 0
309 351 352 -211 0
212 214 -342 0
212 213 199 214 0
-212 -214 0
342 -212 -213 0
342 -212 -199 0
213 165 -365 0
365 -213 0
-213 -165 0
214 344 -215 0
214 338 344 -366 0
-214 -344 0
215 -214 -338 0
366 215 -214 0
215 165 -367 0
367 -215 0
-215 -165 0
216 217 -9 0
216 217 222 226 0
-216 -217 0
9 -216 -226 0
9 -216 -222 0
217 62 218 -221 0
217 9 62 218 0
-217 -218 0
-217 -62 0
221 -217 -9 0
218 9 219 -178 0
218 9 220 -219 0
-218 -9 0
178 219 -218 0
-218 -219 -220 0
219 361 -354 -362 -37 0
37 -219 0
354 -219 0
362 -219 0
-219 -361 0
220 351 -315 0
220 315 352 -316 0
220 315 -351 0
220 316 351 -352 0
-220 -315 -351 0
315 351 -220 -316 -352 0
315 316 351 352 -220 0
221 90 178 0
221 -93 -180 0
221 90 -93 0
221 178 -180 0
180 -221 -90 0
93 -221 -178 0
222 38 -194 0
222 223 -38 -46 0
222 223 -194 0
-222 -38 -223 0
38 194 -222 0
46 194 -222 0
223 -49 -224 0
49 -223 0
224 -223 0
224 332 -333 0
224 -332 -225 0
224 332 -215 0
225 -224 -332 0
332 333 215 -224 0
225 338 -366 0
-225 -338 0
366 -225 0
226 322 62 -33 0
226 33 62 188 0
-226 -62 0
33 -226 -188 0
-226 -322 -33 0
227 -62 -228 0
227 62 -234 0
227 62 -230 0
228 -227 -62 0
62 230 234 -227 0
228 314 -150 0
228 152 229 0
228 152 -150 0
228 314 229 0
150 -228 -229 0
-228 -314 -152 0
229 -314 -356 0
229 314 356 0
314 -229 -356 0
356 -229 -314 0
230 9 231 -233 0
230 28 9 231 0
-230 -231 0
-230 -9 0
233 -230 -28 0
231 314 28 -232 0
231 28 232 -229 0
-231 -28 0
-231 -314 -232 0
229 232 -231 0
232 -350 -96 0
350 -232 0
96 -232 0
233 229 -314 0
233 54 -56 0
233 54 229 0
233 -314 -56 0
314 -233 -54 0
56 -233 -229 0
234 314 235 -9 0
234 90 235 -9 0
9 -234 0
-234 -235 0
-234 -314 -90 0
235 93 -229 0
-235 -93 0
229 -235 0
236 62 237 -245 0
236 9 62 237 0
-236 -237 0
-236 -62 0
245 -236 -9 0
237 9 238 243 0
237 9 238 -242 0
-237 -9 0
-237 -238 0
242 -237 -243 0
238 38 240 -34 0
238 34 38 -239 0
-238 -38 0
-238 -34 -240 0
34 239 -238 0
239 165 181 0
239 135 181 0
239 -325 -165 -135 0
165 -239 -181 0
135 -239 -181 0
325 -239 -165 -135 0
240 241 -361 0
240 241 -181 0
-240 -241 0
361 181 -240 0
241 325 -361 -365 0
241 325 -361 -171 0
241 365 171 -325 -361 0
-241 -325 -365 0
325 365 171 -241 0
361 -241 0
-241 -325 -171 0
242 50 -181 0
242 165 -181 0
181 -242 0
-242 -165 -50 0
243 244 -38 0
243 50 -38 0
38 -243 0
-243 -50 -244 0
244 325 -165 0
-244 -325 0
165 -244 0
245 246 -93 0
245 181 246 0
-245 -246 0
93 -245 -181 0
246 325 -250 0
246 -142 -247 -250 0
250 -246 0
142 -246 -325 0
247 -246 -325 0
247 58 165 -249 0
247 58 165 -248 0
-247 -58 0
-247 -165 0
248 249 -247 0
248 357 358 0
-248 -357 0
-248 -358 0
249 -364 -365 0
364 -249 0
365 -249 0
250 -325 -90 0
250 72 -90 0
250 247 -90 0
90 -250 0
325 -250 -72 -247 0
251 252 -253 -254 0
251 -207 -253 -254 0
254 -251 0
253 -251 0
207 -251 -252 0
252 315 -316 0
-252 -315 0
316 -252 0
253 323 324 325 326 0
-253 -326 0
-253 -325 0
-253 -323 0
-253 -324 0
254 313 314 321 322 0
-254 -322 0
-254 -321 0
-254 -313 0
-254 -314 0
255 315 256 -257 0
255 256 -317 -257 0
257 -255 0
-255 -256 0
317 -255 -315 0
256 316 317 -318 0
256 315 316 -317 0
-256 -316 0
317 318 -256 0
-256 -315 -317 0
257 311 312 319 320 0
-257 -320 0
-257 -319 0
-257 -311 0
-257 -312 0
258 -259 -260 -261 -262 0
262 -258 0
259 -258 0
261 -258 0
260 -258 0
259 337 379 -120 -162 0
259 -337 -379 -120 -162 0
162 -259 0
379 -259 -337 0
120 -259 0
337 -259 -379 0
260 -330 -372 -103 0
260 330 372 -103 0
103 -260 0
372 -260 -330 0
330 -260 -372 0
261 318 360 -306 -348 0
261 306 348 -318 -360 0
261 306 318 348 360 0
261 -306 -318 -348 -360 0
348 -261 -306 0
306 -261 -348 0
318 -261 -360 0
360 -261 -318 0
262 -32 -263 -264 -181 0
181 -262 0
32 -262 0
264 -262 0
263 -262 0
263 -315 -357 0
263 315 357 0
315 -263 -357 0
357 -263 -315 0
264 -316 -358 0
264 316 358 0
316 -264 -358 0
358 -264 -316 0
265 -266 -278 -285 -290 0
290 -265 0
266 -265 0
285 -265 0
278 -265 0
266 -267 -270 -274 -275 0
275 -266 0
267 -266 0
274 -266 0
270 -266 0
267 331 373 268 -269 0
267 268 -331 -373 -269 0
-267 -268 0
331 -267 -373 0
269 -267 0
373 -267 -331 0
268 307 -349 0
268 349 -307 0
-268 -307 -349 0
307 349 -268 0
269 298 340 -297 -339 0
269 297 339 -298 -340 0
269 297 298 339 340 0
269 -297 -298 -339 -340 0
339 -269 -297 0
297 -269 -339 0
298 -269 -340 0
340 -269 -298 0
270 296 338 -271 -273 0
270 -296 -338 -271 -273 0
273 -270 0
338 -270 -296 0
271 -270 0
296 -270 -338 0
271 -310 -352 -272 0
271 310 352 -272 0
272 -271 0
352 -271 -310 0
310 -271 -352 0
272 308 335 0
272 -350 -377 0
272 308 -377 0
272 335 -350 0
350 -272 -308 0
377 -272 -335 0
273 -308 -381 0
273 350 -381 0
381 -273 0
308 -273 -350 0
274 -92 -149 -188 -229 0
229 -274 0
92 -274 0
188 -274 0
149 -274 0
275 317 359 -276 -277 0
275 -317 -359 -276 -277 0
277 -275 0
359 -275 -317 0
276 -275 0
317 -275 -359 0
276 -309 -351 0
276 309 351 0
309 -276 -351 0
351 -276 -309 0
277 -304 -346 -134 0
277 304 346 -134 0
134 -277 0
346 -277 -304 0
304 -277 -346 0
278 -279 -280 -281 -282 0
282 -278 0
279 -278 0
281 -278 0
280 -278 0
279 333 375 -332 -374 0
279 332 374 -333 -375 0
279 332 333 374 375 0
279 -332 -333 -374 -375 0
374 -279 -332 0
332 -279 -374 0
333 -279 -375 0
375 -279 -333 0
280 320 362 -319 -361 0
280 319 361 -320 -362 0
280 319 320 361 362 0
280 -319 -320 -361 -362 0
361 -280 -319 0
319 -280 -361 0
320 -280 -362 0
362 -280 -320 0
281 300 342 -299 0
281 341 -300 -342 0
281 -299 -300 -342 0
281 300 341 342 0
300 -281 -342 0
342 -281 -300 0
299 -281 -341 0
282 336 283 -284 0
282 283 -378 -284 0
284 -282 0
-282 -283 0
378 -282 -336 0
283 303 -345 0
-283 -303 0
345 -283 0
284 -301 -341 0
284 299 343 0
284 299 -301 0
284 343 -341 0
341 -284 -299 0
301 -284 -343 0
285 334 376 -286 -289 0
285 -334 -376 -286 -289 0
289 -285 0
376 -285 -334 0
286 -285 0
334 -285 -376 0
286 327 369 287 288 0
286 287 288 -327 -369 0
-286 -287 0
369 -286 -327 0
-286 -288 0
327 -286 -369 0
287 335 -377 0
-287 -335 0
377 -287 0
288 328 -370 0
-288 -328 0
370 -288 0
289 -305 -347 0
289 305 347 0
305 -289 -347 0
347 -289 -305 0
290 -291 -292 -293 0
291 -290 0
292 -290 0
293 -290 0
291 -302 -343 0
291 301 344 0
291 301 -302 0
291 344 -343 0
343 -291 -301 0
302 -291 -344 0
292 -336 -345 0
292 303 378 0
292 303 -336 0
292 378 -345 0
345 -292 -303 0
336 -292 -378 0
293 329 371 294 295 0
293 294 295 -329 -371 0
-293 -294 0
371 -293 -329 0
-293 -295 0
329 -293 -371 0
294 370 -328 0
328 -294 0
-294 -370 0
295 344 -302 0
302 -295 0
-295 -344 0
426 0
2 4 0
-2 -4 0
3 4 0
-3 -4 0
3 0
